% Data file generated from RandomInstances/16_0.60_3.col DIMACS file
size = 16;

chi = 6;

adjacency = [|0,0,1,1,1,1,1,1,1,1,0,1,1,0,1,1,
|0,0,0,0,1,1,1,0,0,0,0,1,1,0,0,0,
|1,0,0,0,1,0,1,1,1,1,1,1,1,1,1,1,
|1,0,0,0,0,1,1,1,1,0,1,1,1,1,1,1,
|1,1,1,0,0,0,1,1,1,1,0,1,0,0,0,1,
|1,1,0,1,0,0,1,0,0,0,1,1,1,1,0,0,
|1,1,1,1,1,1,0,1,1,0,1,0,0,1,0,1,
|1,0,1,1,1,0,1,0,1,1,0,1,1,1,1,0,
|1,0,1,1,1,0,1,1,0,1,1,1,1,1,1,1,
|1,0,1,0,1,0,0,1,1,0,1,0,0,1,1,1,
|0,0,1,1,0,1,1,0,1,1,0,1,0,1,1,1,
|1,1,1,1,1,1,0,1,1,0,1,0,0,1,0,0,
|1,1,1,1,0,1,0,1,1,0,0,0,0,1,0,1,
|0,0,1,1,0,1,1,1,1,1,1,1,1,0,0,1,
|1,0,1,1,0,0,0,1,1,1,1,0,0,0,0,1,
|1,0,1,1,1,0,1,0,1,1,1,0,1,1,1,0,
|];